11
pyridine starting geometry generated from SMILES n1ccccc1
N   0.1535732971 -1.5793414210  0.0333607885
C   1.2712673560 -0.8036218714  0.0354631181
C   1.1566618971  0.5889317458  0.0063694877
C  -0.1136534640  1.1688075018 -0.0246889361
C  -1.2483881820  0.3543775178 -0.0262953911
C  -1.0925639893 -1.0341562504  0.0033568581
H   2.2482776960 -1.2674692912  0.0597021334
H   2.0423093838  1.2110426680  0.0078880885
H  -0.2183808121  2.2458192369 -0.0474381213
H  -2.2372458470  0.7936759895 -0.0502353622
H  -1.9618573355 -1.6780658259  0.0025173365
