10
pyrrole starting geometry generated from SMILES c1cc[nH]c1
C   0.3903529901  1.1130263646  0.0088165379
C   1.1783827280 -0.0200031421  0.0478855841
C   0.3166815499 -1.0973913211  0.0197423386
N  -0.9559958804 -0.6660929832 -0.0345327921
C  -0.9182761580  0.6782281894 -0.0414734572
H   0.7316971135  2.1394828115  0.0161711382
H   2.2586380279 -0.0559574446  0.0918914959
H   0.6055636516 -2.1400124749  0.0379890722
H  -1.8121576561 -1.2626228735 -0.0654676512
H  -1.7948863666  1.3113428739 -0.0810222665
